#######################



#######################
Set parameter TimeLimit to value 500
Set parameter SoftMemLimit to value 125
Set parameter LogFile to value 1202-TimeLimit500-k16x240-9.log
Set parameter Seed to value 19
Using license file /opt/gurobi/gurobi.lic

Gurobi Optimizer version 12.0.2 build v12.0.2rc0 (linux64 - "Ubuntu 22.04.4 LTS")
Copyright (c) 2025, Gurobi Optimization, LLC

Read MPS format model from file /miplib2010/k16x240.mps.bz2
Reading time = 0.00 seconds
k16x240: 256 rows, 480 columns, 960 nonzeros

Using Gurobi shared library /nfs/shared/static-builds/gurobi1202

CPU model: Intel(R) Xeon(R) E-2388G CPU @ 3.20GHz, instruction set [SSE2|AVX|AVX2|AVX512]
Thread count: 8 physical cores, 16 logical processors, using up to 16 threads

Non-default parameters:
TimeLimit  500
SoftMemLimit  125
Seed  19

Optimize a model with 256 rows, 480 columns and 960 nonzeros
Model fingerprint: 0x4e80885f
Variable types: 240 continuous, 240 integer (240 binary)
Coefficient statistics:
  Matrix range     [1e+00, 1e+03]
  Objective range  [1e+00, 1e+03]
  Bounds range     [1e+00, 1e+03]
  RHS range        [4e+00, 4e+02]
Found heuristic solution: objective 17517.000000
Presolve time: 0.00s
Presolved: 256 rows, 480 columns, 960 nonzeros
Variable types: 240 continuous, 240 integer (240 binary)

Root relaxation: objective 2.769838e+03, 51 iterations, 0.00 seconds (0.00 work units)

    Nodes    |    Current Node    |     Objective Bounds      |     Work
 Expl Unexpl |  Obj  Depth IntInf | Incumbent    BestBd   Gap | It/Node Time

     0     0 2769.83800    0   14 17517.0000 2769.83800  84.2%     -    0s
H    0     0                    11359.000000 2769.83800  75.6%     -    0s
H    0     0                    11195.000000 2769.83800  75.3%     -    0s
H    0     0                    11088.000000 2769.83800  75.0%     -    0s
H    0     0                    11074.000000 8084.69631  27.0%     -    0s
     0     0 8084.69631    0   26 11074.0000 8084.69631  27.0%     -    0s
H    0     0                    10916.000000 8126.71248  25.6%     -    0s
     0     0 8528.16906    0   24 10916.0000 8528.16906  21.9%     -    0s
H    0     0                    10896.000000 8539.49533  21.6%     -    0s
H    0     0                    10806.000000 8539.49533  21.0%     -    0s
     0     0 8539.49533    0   34 10806.0000 8539.49533  21.0%     -    0s
     0     0 8548.03675    0   29 10806.0000 8548.03675  20.9%     -    0s
     0     0 8739.20556    0   38 10806.0000 8739.20556  19.1%     -    0s
H    0     0                    10801.000000 8745.55182  19.0%     -    0s
H    0     0                    10784.000000 8745.55182  18.9%     -    0s
H    0     0                    10717.000000 8745.55182  18.4%     -    0s
     0     0 8805.66840    0   29 10717.0000 8805.66840  17.8%     -    0s
     0     0 8815.00598    0   31 10717.0000 8815.00598  17.7%     -    0s
     0     0 8817.96662    0   29 10717.0000 8817.96662  17.7%     -    0s
     0     0 9011.54517    0   38 10717.0000 9011.54517  15.9%     -    0s
     0     0 9032.01539    0   40 10717.0000 9032.01539  15.7%     -    0s
     0     0 9033.68401    0   48 10717.0000 9033.68401  15.7%     -    0s
     0     0 9060.65313    0   27 10717.0000 9060.65313  15.5%     -    0s
     0     0 9078.20785    0   31 10717.0000 9078.20785  15.3%     -    0s
     0     0 9082.69460    0   32 10717.0000 9082.69460  15.2%     -    0s
     0     0 9119.70077    0   36 10717.0000 9119.70077  14.9%     -    0s
     0     0 9119.81762    0   36 10717.0000 9119.81762  14.9%     -    0s
H    0     0                    10681.000000 9119.81762  14.6%     -    0s
     0     2 9119.81762    0   36 10681.0000 9119.81762  14.6%     -    0s
H   42    64                    10678.000000 9171.69176  14.1%  29.3    0s
H 1985  1332                    10674.000000 9442.57417  11.5%  17.4    0s
 40113 13059 10429.5495   41   10 10674.0000 10107.9835  5.30%  27.6    5s
 79292 14089 10399.9010   40   19 10674.0000 10304.2026  3.46%  29.3   10s

Cutting planes:
  Gomory: 1
  Lift-and-project: 17
  Cover: 77
  Implied bound: 41
  Dual implied bound: 37
  MIR: 187
  Flow cover: 322
  Flow path: 49
  Inf proof: 3
  Zero half: 7
  Network: 59
  Relax-and-lift: 4

Explored 119728 nodes (3322500 simplex iterations) in 14.20 seconds (18.28 work units)
Thread count was 16 (of 16 available processors)

Solution count 10: 10674 10678 10681 ... 11074

Optimal solution found (tolerance 1.00e-04)
Best objective 1.067400000000e+04, best bound 1.067400000000e+04, gap 0.0000%
